50
    97    76    74    35    99    26    70    84    84    47    96    25    18    33    77    69    11    42    29    48    10    99    58     5     5    94    62   100    26    82    28     9    42    84    34    25    65    88    48    53    47    45    32    17    80    74    33    55    97    59
     6     4     8     8     2     5     6    10     2     9     9     1     5     8     2     7    10     2     9     1     2     1    10     9     4     7     1     2     4     8     8     6     1     5     1     1     6     5    10     4     3     9    10     3     8     4     5     4     8    10
  3096  1923  1530  2072  2590  2070  2094  1614  2051  2423  2910  1283  1414  3143  2282  1328  1276  2327  1768  1253  2961  2687  2475  1635  3199  2044  2434  2710  2819  2156  1514  1882  1423  1377  3108  3084  1767  1321  1808  1353  2281  1680  2328  2972  1456  2579  2871  1419  1129  1546
